29 29
9 1
8 10
3 2
3 9
8 3
8 3
1 8
8 3
8 4
8 10
4 10
5 9
6 5
4 1
3 5
1 8
7 2
8 1
2 10
1 2
2 3
7 5
2 5
7 4
1 10
4 8
4 8
5 6
9 2
14 15 69
13 10 62
17 10 96
13 15 96
14 10 80
10 16 89
13 19 53
19 10 92
15 16 82
18 14 86
20 12 78
20 15 72
11 15 66
14 16 91
12 16 90
20 11 59
10 19 84
20 14 92
10 15 62
15 13 87
12 10 82
20 10 53
13 19 99
20 20 78
18 16 76
13 10 52
9 11 86
16 11 56
13 19 55
